50, 926
32, 37
40, 41
43, 38
24, 28
51, 48
40, 36
34, 33
51, 48
26, 31
33, 32
28, 29
41, 46
41, 37
36, 39
49, 45
41, 37
45, 45
46, 41
48, 46
41, 36
26, 29
49, 45
26, 30
35, 35
40, 38
25, 29
24, 27
30, 31
47, 42
42, 47
44, 41
33, 28
37, 37
40, 35
36, 40
43, 48
43, 44
28, 33
36, 31
36, 34
27, 25
48, 48
36, 37
41, 36
32, 35
46, 45
48, 47
26, 26
23, 26
28, 31
